unsat
(define-fun InvF ((x Int) (n Int) (m Int)) Bool (let ((_let_1 (* (- 1) m))) (and (>= m 1) (>= (+ x _let_1) 0) (or (>= (+ n _let_1) 1) (not (>= (+ x (* (- 1) n)) 0)) (not (>= n 2))))))
0.13user 0.00system 0:00.14elapsed 98%CPU (0avgtext+0avgdata 28296maxresident)k
0inputs+8outputs (0major+1840minor)pagefaults 0swaps
